unknown
(model
; cardinality of BoundSet is 2
(declare-sort BoundSet 0)
; rep: @uc_BoundSet_0
; rep: @uc_BoundSet_1
; cardinality of UnboundSet is 1
(declare-sort UnboundSet 0)
(declare-fun groundTerm_3 () UnboundSet)
(define-fun IsChild ((BOUND_VARIABLE_400 BoundSet)) Bool true)
(define-fun Rides ((BOUND_VARIABLE_407 BoundSet) (BOUND_VARIABLE_408 BoundSet)) Bool true)
(define-fun IsDaytime ((BOUND_VARIABLE_400 BoundSet)) Bool false)
)
sat
(model
; cardinality of BoundSet is 1
(declare-sort BoundSet 0)
; rep: @uc_BoundSet_0
; cardinality of UnboundSet is 1
(declare-sort UnboundSet 0)
(declare-fun groundTerm_5 () UnboundSet)
(define-fun IsChild ((BOUND_VARIABLE_430 BoundSet)) Bool true)
(define-fun Rides ((BOUND_VARIABLE_437 BoundSet) (BOUND_VARIABLE_438 BoundSet)) Bool true)
(define-fun IsDaytime ((BOUND_VARIABLE_430 BoundSet)) Bool false)
)
